n_machines = 10;
n_resources = 12;
n_jobs = 60;
horizon = 315;
LB = 34;
n_jobs_per_resource = [5, 5, 5, 5, 5, 5, 5, 5, 5, 5, 5, 5];
duration = [3, 7, 9, 1, 7, 9, 2, 5, 7, 1, 9, 5, 5, 6, 8, 9, 8, 8, 1, 4, 3, 1, 9, 1, 1, 7, 9, 3, 1, 4, 9, 2, 2, 8, 8, 9, 7, 1, 6, 2, 6, 1, 6, 8, 4, 5, 7, 5, 5, 2, 9, 6, 5, 5, 9, 4, 8, 5, 2, 6]